p cnf 21 7
a 1 0
e 2 0
a 3 0
e 4 0
a 5 6 0
e 7 0
a 8 9 0
e 10 11 12 13 14 15 0
a 16 17 18 0
e 19 0
a 20 0
e 21 0
-15 -13 19 17 0
17 -6 0
-20 13 0
5 -4 -15 0
4 9 -2 5 -14 0
-2 -9 7 8 18 0
-4 -5 21 -7 15 0
